(set-logic QF_UF)
(declare-fun A0 () Bool)
(declare-fun A1 () Bool)
(declare-fun A2 () Bool)
(declare-fun A3 () Bool)
(declare-fun A4 () Bool)
(declare-fun A5 () Bool)
(declare-fun A6 () Bool)
(declare-fun A7 () Bool)
(declare-fun A8 () Bool)
(declare-fun A9 () Bool)
(declare-fun A10 () Bool)
(declare-fun A11 () Bool)
(declare-fun A12 () Bool)
(declare-fun A13 () Bool)
(declare-fun A14 () Bool)
(declare-fun A15 () Bool)
(declare-fun A16 () Bool)
(declare-fun A17 () Bool)
(declare-fun A18 () Bool)
(declare-fun A19 () Bool)
(declare-fun A20 () Bool)
(declare-fun A21 () Bool)
(declare-fun A22 () Bool)
(declare-fun A23 () Bool)
(declare-fun A24 () Bool)
(assert (let ((.def_0 (not A21))) (let ((.def_1 (not A12))) (let ((.def_2 (or .def_1 .def_0))) (let ((.def_3 (or .def_1 A2))) (let ((.def_4 (not .def_3))) (let ((.def_5 (and .def_4 .def_2))) (let ((.def_6 (not .def_5))) (let ((.def_7 (and A21 A15))) (let ((.def_8 (not .def_7))) (let ((.def_9 (not A6))) (let ((.def_10 (or .def_9 A6))) (let ((.def_11 (or .def_10 .def_8))) (let ((.def_12 (not .def_11))) (let ((.def_13 (or .def_12 .def_6))) (let ((.def_14 (not A3))) (let ((.def_15 (not A13))) (let ((.def_16 (or .def_15 .def_14))) (let ((.def_17 (not .def_16))) (let ((.def_18 (not A18))) (let ((.def_19 (= A13 .def_18))) (let ((.def_20 (not .def_19))) (let ((.def_21 (= .def_20 .def_17))) (let ((.def_22 (not .def_21))) (let ((.def_23 (not A19))) (let ((.def_24 (and A15 .def_23))) (let ((.def_25 (not .def_24))) (let ((.def_26 (and A16 .def_14))) (let ((.def_27 (not .def_26))) (let ((.def_28 (and .def_27 .def_25))) (let ((.def_29 (and .def_28 .def_22))) (let ((.def_30 (not .def_29))) (let ((.def_31 (or .def_30 .def_13))) (let ((.def_32 (not A17))) (let ((.def_33 (and .def_32 .def_23))) (let ((.def_34 (not .def_33))) (let ((.def_35 (not A22))) (let ((.def_36 (= .def_35 A20))) (let ((.def_37 (not .def_36))) (let ((.def_38 (= .def_37 .def_34))) (let ((.def_39 (not A20))) (let ((.def_40 (= .def_39 A6))) (let ((.def_41 (not .def_40))) (let ((.def_42 (not A10))) (let ((.def_43 (and .def_42 A16))) (let ((.def_44 (not .def_43))) (let ((.def_45 (or .def_44 .def_41))) (let ((.def_46 (not .def_45))) (let ((.def_47 (and .def_46 .def_38))) (let ((.def_48 (not .def_47))) (let ((.def_49 (not A2))) (let ((.def_50 (or A22 .def_49))) (let ((.def_51 (or A3 .def_32))) (let ((.def_52 (and .def_51 .def_50))) (let ((.def_53 (not .def_52))) (let ((.def_54 (and .def_18 .def_42))) (let ((.def_55 (not A24))) (let ((.def_56 (or A4 .def_55))) (let ((.def_57 (and .def_56 .def_54))) (let ((.def_58 (not .def_57))) (let ((.def_59 (and .def_58 .def_53))) (let ((.def_60 (or .def_59 .def_48))) (let ((.def_61 (not .def_60))) (let ((.def_62 (and .def_61 .def_31))) (let ((.def_63 (not .def_62))) (let ((.def_64 (and A3 A4))) (let ((.def_65 (and .def_23 A15))) (let ((.def_66 (or .def_65 .def_64))) (let ((.def_67 (not A0))) (let ((.def_68 (or A11 .def_67))) (let ((.def_69 (or .def_23 A24))) (let ((.def_70 (and .def_69 .def_68))) (let ((.def_71 (not .def_70))) (let ((.def_72 (and .def_71 .def_66))) (let ((.def_73 (not .def_72))) (let ((.def_74 (and A20 .def_0))) (let ((.def_75 (and .def_18 .def_67))) (let ((.def_76 (or .def_75 .def_74))) (let ((.def_77 (not .def_76))) (let ((.def_78 (= A17 A0))) (let ((.def_79 (and .def_1 A1))) (let ((.def_80 (not .def_79))) (let ((.def_81 (and .def_80 .def_78))) (let ((.def_82 (not .def_81))) (let ((.def_83 (or .def_82 .def_77))) (let ((.def_84 (or .def_83 .def_73))) (let ((.def_85 (not .def_84))) (let ((.def_86 (not A8))) (let ((.def_87 (or A24 .def_86))) (let ((.def_88 (not .def_87))) (let ((.def_89 (or A16 .def_18))) (let ((.def_90 (and .def_89 .def_88))) (let ((.def_91 (or A13 .def_55))) (let ((.def_92 (not A23))) (let ((.def_93 (and .def_92 .def_0))) (let ((.def_94 (and .def_93 .def_91))) (let ((.def_95 (or .def_94 .def_90))) (let ((.def_96 (not .def_95))) (let ((.def_97 (and .def_15 A17))) (let ((.def_98 (not .def_97))) (let ((.def_99 (or A1 A6))) (let ((.def_100 (not .def_99))) (let ((.def_101 (and .def_100 .def_98))) (let ((.def_102 (or .def_14 .def_0))) (let ((.def_103 (not .def_102))) (let ((.def_104 (and A11 A7))) (let ((.def_105 (not .def_104))) (let ((.def_106 (= .def_105 .def_103))) (let ((.def_107 (not .def_106))) (let ((.def_108 (and .def_107 .def_101))) (let ((.def_109 (not .def_108))) (let ((.def_110 (and .def_109 .def_96))) (let ((.def_111 (not .def_110))) (let ((.def_112 (and .def_111 .def_85))) (let ((.def_113 (not .def_112))) (let ((.def_114 (and .def_113 .def_63))) (let ((.def_115 (not .def_114))) (let ((.def_116 (or .def_67 .def_86))) (let ((.def_117 (not .def_116))) (let ((.def_118 (or .def_55 A10))) (let ((.def_119 (or .def_118 .def_117))) (let ((.def_120 (and .def_1 A11))) (let ((.def_121 (not .def_120))) (let ((.def_122 (not A15))) (let ((.def_123 (and .def_122 A15))) (let ((.def_124 (= .def_123 .def_121))) (let ((.def_125 (not .def_124))) (let ((.def_126 (and .def_125 .def_119))) (let ((.def_127 (not A11))) (let ((.def_128 (or .def_127 .def_14))) (let ((.def_129 (not .def_128))) (let ((.def_130 (not .def_93))) (let ((.def_131 (and .def_130 .def_129))) (let ((.def_132 (not .def_131))) (let ((.def_133 (or A18 A10))) (let ((.def_134 (and A10 A0))) (let ((.def_135 (= .def_134 .def_133))) (let ((.def_136 (not .def_135))) (let ((.def_137 (and .def_136 .def_132))) (let ((.def_138 (not .def_137))) (let ((.def_139 (and .def_138 .def_126))) (let ((.def_140 (and A6 A21))) (let ((.def_141 (not .def_140))) (let ((.def_142 (not A9))) (let ((.def_143 (or A1 .def_142))) (let ((.def_144 (not .def_143))) (let ((.def_145 (and .def_144 .def_141))) (let ((.def_146 (not .def_145))) (let ((.def_147 (or .def_49 A21))) (let ((.def_148 (= .def_86 A22))) (let ((.def_149 (not .def_148))) (let ((.def_150 (or .def_149 .def_147))) (let ((.def_151 (= .def_150 .def_146))) (let ((.def_152 (or A11 A20))) (let ((.def_153 (not .def_152))) (let ((.def_154 (or .def_42 A12))) (let ((.def_155 (not .def_154))) (let ((.def_156 (and .def_155 .def_153))) (let ((.def_157 (not .def_156))) (let ((.def_158 (or A8 A12))) (let ((.def_159 (not .def_158))) (let ((.def_160 (or .def_32 .def_18))) (let ((.def_161 (and .def_160 .def_159))) (let ((.def_162 (= .def_161 .def_157))) (let ((.def_163 (not .def_162))) (let ((.def_164 (and .def_163 .def_151))) (let ((.def_165 (and .def_164 .def_139))) (let ((.def_166 (or .def_42 A20))) (let ((.def_167 (or .def_55 A18))) (let ((.def_168 (not .def_167))) (let ((.def_169 (or .def_168 .def_166))) (let ((.def_170 (not A14))) (let ((.def_171 (or .def_170 A23))) (let ((.def_172 (= .def_9 .def_42))) (let ((.def_173 (and .def_172 .def_171))) (let ((.def_174 (and .def_173 .def_169))) (let ((.def_175 (not .def_174))) (let ((.def_176 (or .def_1 A21))) (let ((.def_177 (or A0 A17))) (let ((.def_178 (= .def_177 .def_176))) (let ((.def_179 (and .def_9 A1))) (let ((.def_180 (not .def_179))) (let ((.def_181 (and A10 A11))) (let ((.def_182 (not .def_181))) (let ((.def_183 (and .def_182 .def_180))) (let ((.def_184 (and .def_183 .def_178))) (let ((.def_185 (not .def_184))) (let ((.def_186 (or .def_185 .def_175))) (let ((.def_187 (= .def_39 A20))) (let ((.def_188 (or .def_127 A12))) (let ((.def_189 (not .def_188))) (let ((.def_190 (and .def_189 .def_187))) (let ((.def_191 (not .def_190))) (let ((.def_192 (not A5))) (let ((.def_193 (or .def_192 A7))) (let ((.def_194 (not .def_193))) (let ((.def_195 (= .def_67 .def_142))) (let ((.def_196 (and .def_195 .def_194))) (let ((.def_197 (not .def_196))) (let ((.def_198 (and .def_197 .def_191))) (let ((.def_199 (and .def_122 .def_15))) (let ((.def_200 (not .def_199))) (let ((.def_201 (or A17 A4))) (let ((.def_202 (not .def_201))) (let ((.def_203 (and .def_202 .def_200))) (let ((.def_204 (or .def_42 A14))) (let ((.def_205 (not .def_204))) (let ((.def_206 (not A1))) (let ((.def_207 (= A14 .def_206))) (let ((.def_208 (and .def_207 .def_205))) (let ((.def_209 (not .def_208))) (let ((.def_210 (or .def_209 .def_203))) (let ((.def_211 (not .def_210))) (let ((.def_212 (or .def_211 .def_198))) (let ((.def_213 (or .def_212 .def_186))) (let ((.def_214 (or .def_213 .def_165))) (let ((.def_215 (not .def_214))) (let ((.def_216 (and .def_215 .def_115))) (let ((.def_217 (and A7 .def_170))) (let ((.def_218 (not .def_217))) (let ((.def_219 (and A18 .def_142))) (let ((.def_220 (or .def_219 .def_218))) (let ((.def_221 (not .def_220))) (let ((.def_222 (or .def_23 A11))) (let ((.def_223 (not .def_222))) (let ((.def_224 (and .def_14 A2))) (let ((.def_225 (or .def_224 .def_223))) (let ((.def_226 (or .def_225 .def_221))) (let ((.def_227 (and .def_142 A24))) (let ((.def_228 (not .def_227))) (let ((.def_229 (and A18 A20))) (let ((.def_230 (and .def_229 .def_228))) (let ((.def_231 (= .def_0 .def_18))) (let ((.def_232 (not .def_231))) (let ((.def_233 (or .def_86 A13))) (let ((.def_234 (not .def_233))) (let ((.def_235 (and .def_234 .def_232))) (let ((.def_236 (not .def_235))) (let ((.def_237 (or .def_236 .def_230))) (let ((.def_238 (not .def_237))) (let ((.def_239 (or .def_238 .def_226))) (let ((.def_240 (and .def_55 .def_55))) (let ((.def_241 (and A23 .def_14))) (let ((.def_242 (and .def_241 .def_240))) (let ((.def_243 (not .def_242))) (let ((.def_244 (or A11 .def_192))) (let ((.def_245 (not .def_244))) (let ((.def_246 (not A16))) (let ((.def_247 (and .def_122 .def_246))) (let ((.def_248 (not .def_247))) (let ((.def_249 (or .def_248 .def_245))) (let ((.def_250 (and .def_249 .def_243))) (let ((.def_251 (not A4))) (let ((.def_252 (and .def_251 A1))) (let ((.def_253 (= .def_14 A4))) (let ((.def_254 (and .def_253 .def_252))) (let ((.def_255 (= A9 .def_9))) (let ((.def_256 (not .def_255))) (let ((.def_257 (and .def_55 A6))) (let ((.def_258 (not .def_257))) (let ((.def_259 (and .def_258 .def_256))) (let ((.def_260 (and .def_259 .def_254))) (let ((.def_261 (not .def_260))) (let ((.def_262 (= .def_261 .def_250))) (let ((.def_263 (and .def_262 .def_239))) (let ((.def_264 (not .def_263))) (let ((.def_265 (= A12 A7))) (let ((.def_266 (not .def_265))) (let ((.def_267 (or A7 .def_170))) (let ((.def_268 (or .def_267 .def_266))) (let ((.def_269 (or .def_67 A8))) (let ((.def_270 (and A19 A18))) (let ((.def_271 (or .def_270 .def_269))) (let ((.def_272 (not .def_271))) (let ((.def_273 (and .def_272 .def_268))) (let ((.def_274 (and A12 A19))) (let ((.def_275 (or A18 A5))) (let ((.def_276 (not .def_275))) (let ((.def_277 (= .def_276 .def_274))) (let ((.def_278 (or .def_55 A2))) (let ((.def_279 (or A16 A3))) (let ((.def_280 (and .def_279 .def_278))) (let ((.def_281 (= .def_280 .def_277))) (let ((.def_282 (not .def_281))) (let ((.def_283 (or .def_282 .def_273))) (let ((.def_284 (or .def_23 .def_251))) (let ((.def_285 (and .def_92 .def_32))) (let ((.def_286 (or .def_285 .def_284))) (let ((.def_287 (not .def_286))) (let ((.def_288 (or A13 A21))) (let ((.def_289 (not .def_288))) (let ((.def_290 (and A9 A8))) (let ((.def_291 (not .def_290))) (let ((.def_292 (and .def_291 .def_289))) (let ((.def_293 (= .def_292 .def_287))) (let ((.def_294 (and A1 A3))) (let ((.def_295 (and A17 A23))) (let ((.def_296 (and .def_295 .def_294))) (let ((.def_297 (and A4 A8))) (let ((.def_298 (and A21 A2))) (let ((.def_299 (or .def_298 .def_297))) (let ((.def_300 (or .def_299 .def_296))) (let ((.def_301 (or .def_300 .def_293))) (let ((.def_302 (not .def_301))) (let ((.def_303 (or .def_302 .def_283))) (let ((.def_304 (not .def_303))) (let ((.def_305 (= .def_304 .def_264))) (let ((.def_306 (and .def_23 A19))) (let ((.def_307 (or .def_32 A5))) (let ((.def_308 (or .def_307 .def_306))) (let ((.def_309 (not .def_308))) (let ((.def_310 (or A0 A4))) (let ((.def_311 (not .def_310))) (let ((.def_312 (not A7))) (let ((.def_313 (and A22 .def_312))) (let ((.def_314 (and .def_313 .def_311))) (let ((.def_315 (or .def_314 .def_309))) (let ((.def_316 (not .def_315))) (let ((.def_317 (and A19 A6))) (let ((.def_318 (or .def_127 A1))) (let ((.def_319 (and .def_318 .def_317))) (let ((.def_320 (and A23 .def_49))) (let ((.def_321 (not .def_320))) (let ((.def_322 (or .def_192 .def_246))) (let ((.def_323 (not .def_322))) (let ((.def_324 (or .def_323 .def_321))) (let ((.def_325 (and .def_324 .def_319))) (let ((.def_326 (or .def_325 .def_316))) (let ((.def_327 (and .def_86 .def_251))) (let ((.def_328 (and A19 A4))) (let ((.def_329 (or .def_328 .def_327))) (let ((.def_330 (not .def_329))) (let ((.def_331 (and A20 A1))) (let ((.def_332 (or A4 A14))) (let ((.def_333 (not .def_332))) (let ((.def_334 (= .def_333 .def_331))) (let ((.def_335 (not .def_334))) (let ((.def_336 (and .def_335 .def_330))) (let ((.def_337 (not .def_336))) (let ((.def_338 (= .def_39 .def_18))) (let ((.def_339 (not .def_338))) (let ((.def_340 (and A17 .def_0))) (let ((.def_341 (not .def_340))) (let ((.def_342 (and .def_341 .def_339))) (let ((.def_343 (and A9 A21))) (let ((.def_344 (not .def_343))) (let ((.def_345 (or .def_206 .def_170))) (let ((.def_346 (and .def_345 .def_344))) (let ((.def_347 (and .def_346 .def_342))) (let ((.def_348 (not .def_347))) (let ((.def_349 (and .def_348 .def_337))) (let ((.def_350 (not .def_349))) (let ((.def_351 (or .def_350 .def_326))) (let ((.def_352 (not .def_351))) (let ((.def_353 (and .def_1 .def_142))) (let ((.def_354 (not .def_353))) (let ((.def_355 (and .def_127 A6))) (let ((.def_356 (not .def_355))) (let ((.def_357 (or .def_356 .def_354))) (let ((.def_358 (or .def_55 A16))) (let ((.def_359 (not .def_358))) (let ((.def_360 (and .def_15 A16))) (let ((.def_361 (and .def_360 .def_359))) (let ((.def_362 (not .def_361))) (let ((.def_363 (or .def_362 .def_357))) (let ((.def_364 (or A17 .def_32))) (let ((.def_365 (or A19 A5))) (let ((.def_366 (not .def_365))) (let ((.def_367 (and .def_366 .def_364))) (let ((.def_368 (not .def_367))) (let ((.def_369 (and A5 A23))) (let ((.def_370 (and A5 A17))) (let ((.def_371 (not .def_370))) (let ((.def_372 (and .def_371 .def_369))) (let ((.def_373 (or .def_372 .def_368))) (let ((.def_374 (and .def_373 .def_363))) (let ((.def_375 (and .def_312 A7))) (let ((.def_376 (not .def_375))) (let ((.def_377 (or .def_142 .def_1))) (let ((.def_378 (not .def_377))) (let ((.def_379 (and .def_378 .def_376))) (let ((.def_380 (or .def_170 .def_251))) (let ((.def_381 (not .def_380))) (let ((.def_382 (or A10 .def_251))) (let ((.def_383 (and .def_382 .def_381))) (let ((.def_384 (and .def_383 .def_379))) (let ((.def_385 (not .def_384))) (let ((.def_386 (and .def_15 .def_14))) (let ((.def_387 (and .def_194 .def_386))) (let ((.def_388 (or A8 A19))) (let ((.def_389 (and .def_246 .def_86))) (let ((.def_390 (or .def_389 .def_388))) (let ((.def_391 (not .def_390))) (let ((.def_392 (or .def_391 .def_387))) (let ((.def_393 (not .def_392))) (let ((.def_394 (and .def_393 .def_385))) (let ((.def_395 (or .def_394 .def_374))) (let ((.def_396 (or .def_395 .def_352))) (let ((.def_397 (not .def_396))) (let ((.def_398 (and .def_397 .def_305))) (let ((.def_399 (not .def_398))) (let ((.def_400 (or .def_399 .def_216))) .def_400))))))))))))))))))))))))))))))))))))))))))))))))))))))))))))))))))))))))))))))))))))))))))))))))))))))))))))))))))))))))))))))))))))))))))))))))))))))))))))))))))))))))))))))))))))))))))))))))))))))))))))))))))))))))))))))))))))))))))))))))))))))))))))))))))))))))))))))))))))))))))))))))))))))))))))))))))))))))))))))))))))))))))))))))))))))))))))))))))))))))))))))))))))))))))))))))))))))))))))))))))
(check-sat)
